(set-logic ALL)
(declare-fun var0 () String)
(assert (str.in_re var0 (re.++ (re.+ (re.union (str.to_re "000") (str.to_re "111"))) (re.++ (re.union (re.+ (str.to_re "222")) (re.+ (str.to_re "333"))) (re.++ (re.+ (re.* (str.to_re "44"))) (re.++ (re.+ (re.+ (str.to_re "55"))) (re.++ (re.+ (re.* (str.to_re "666"))) (re.++ (re.* (re.union (str.to_re "7") (str.to_re "8"))) (re.++ (re.* (re.* (str.to_re "999"))) (re.++ (re.* (re.+ (str.to_re "aaa"))) (re.++ (re.+ (re.union (str.to_re "b") (str.to_re "c"))) (re.++ (re.* (re.union (str.to_re "dd") (str.to_re "eee"))) (re.++ (re.* (re.* (str.to_re "fff"))) (re.++ (re.+ (re.* (str.to_re "g"))) (re.++ (re.union (re.+ (str.to_re "hhh")) (re.+ (str.to_re "i"))) (re.++ (re.union (re.union (str.to_re "jj") (str.to_re "kkk")) (re.union (str.to_re "l") (str.to_re "m"))) (re.++ (re.+ (re.+ (str.to_re "nn"))) (re.++ (re.union (re.+ (str.to_re "ooo")) (re.+ (str.to_re "p"))) (re.++ (re.* (re.+ (str.to_re "qq"))) (re.++ (re.union (re.+ (str.to_re "rrr")) (re.+ (str.to_re "ss"))) (re.++ (re.+ (re.union (str.to_re "ttt") (str.to_re "uu"))) (re.++ (re.* (re.+ (str.to_re "vv"))) (re.++ (re.union (re.+ (str.to_re "www")) (re.+ (str.to_re "xx"))) (re.++ (re.* (re.+ (str.to_re "yy"))) (re.++ (re.+ (re.* (str.to_re "zz"))) (re.++ (re.* (re.* (str.to_re "AAA"))) (re.++ (re.* (re.union (str.to_re "B") (str.to_re "CCC"))) (re.++ (re.* (re.* (str.to_re "DDD"))) (re.++ (re.+ (re.* (str.to_re "E"))) (re.++ (re.* (re.* (str.to_re "FF"))) (re.++ (re.+ (re.union (str.to_re "G") (str.to_re "H"))) (re.++ (re.+ (re.* (str.to_re "III"))) (re.++ (re.+ (re.union (str.to_re "JJJ") (str.to_re "KK"))) (re.++ (re.* (re.* (str.to_re "LL"))) (re.++ (re.+ (re.+ (str.to_re "MMM"))) (re.++ (re.union (re.union (str.to_re "N") (str.to_re "OO")) (re.union (str.to_re "P") (str.to_re "QQ"))) (re.++ (re.* (re.union (str.to_re "R") (str.to_re "S"))) (re.union (re.+ (str.to_re "T")) (re.+ (str.to_re "U"))))))))))))))))))))))))))))))))))))))))
(check-sat)